certificates/rado_a14_c100_N27.drat
-25 -27 0
d -25 -7 -27 0
-9 -17 -27 0
9 -26 25 0
-9 -27 0
d -9 -1 -27 0
-27 0
9 -17 0
-17 0
6 7 0
d 6 8 7 0
-9 0
1 0
7 0
-3 0
-5 0
8 0
-20 0
-19 0
-10 0
-6 0
-13 0
0
